c File: flat100_3_0.col
c
c SOURCE: Joseph Culberson (joe@cs.ualberta.ca)
c DESCRIPTION: Quasi-random coloring problem
c              generated with flatness = 0
c                             probability = 0.072
c                             known coloring = 3
c                             random seed = 1094
c              Creation Date:  Thu Jun  4 18:57:03 1998
c Maximum degree = 8 Minimum degree = 1
c p edge 100 239
c cnf created by edge2cnf
p cnf 300 1117
-1 -2 0
-1 -3 0
-2 -3 0
1 2 3 0
-4 -5 0
-4 -6 0
-5 -6 0
4 5 6 0
-7 -8 0
-7 -9 0
-8 -9 0
7 8 9 0
-10 -11 0
-10 -12 0
-11 -12 0
10 11 12 0
-13 -14 0
-13 -15 0
-14 -15 0
13 14 15 0
-16 -17 0
-16 -18 0
-17 -18 0
16 17 18 0
-19 -20 0
-19 -21 0
-20 -21 0
19 20 21 0
-22 -23 0
-22 -24 0
-23 -24 0
22 23 24 0
-25 -26 0
-25 -27 0
-26 -27 0
25 26 27 0
-28 -29 0
-28 -30 0
-29 -30 0
28 29 30 0
-31 -32 0
-31 -33 0
-32 -33 0
31 32 33 0
-34 -35 0
-34 -36 0
-35 -36 0
34 35 36 0
-37 -38 0
-37 -39 0
-38 -39 0
37 38 39 0
-40 -41 0
-40 -42 0
-41 -42 0
40 41 42 0
-43 -44 0
-43 -45 0
-44 -45 0
43 44 45 0
-46 -47 0
-46 -48 0
-47 -48 0
46 47 48 0
-49 -50 0
-49 -51 0
-50 -51 0
49 50 51 0
-52 -53 0
-52 -54 0
-53 -54 0
52 53 54 0
-55 -56 0
-55 -57 0
-56 -57 0
55 56 57 0
-58 -59 0
-58 -60 0
-59 -60 0
58 59 60 0
-61 -62 0
-61 -63 0
-62 -63 0
61 62 63 0
-64 -65 0
-64 -66 0
-65 -66 0
64 65 66 0
-67 -68 0
-67 -69 0
-68 -69 0
67 68 69 0
-70 -71 0
-70 -72 0
-71 -72 0
70 71 72 0
-73 -74 0
-73 -75 0
-74 -75 0
73 74 75 0
-76 -77 0
-76 -78 0
-77 -78 0
76 77 78 0
-79 -80 0
-79 -81 0
-80 -81 0
79 80 81 0
-82 -83 0
-82 -84 0
-83 -84 0
82 83 84 0
-85 -86 0
-85 -87 0
-86 -87 0
85 86 87 0
-88 -89 0
-88 -90 0
-89 -90 0
88 89 90 0
-91 -92 0
-91 -93 0
-92 -93 0
91 92 93 0
-94 -95 0
-94 -96 0
-95 -96 0
94 95 96 0
-97 -98 0
-97 -99 0
-98 -99 0
97 98 99 0
-100 -101 0
-100 -102 0
-101 -102 0
100 101 102 0
-103 -104 0
-103 -105 0
-104 -105 0
103 104 105 0
-106 -107 0
-106 -108 0
-107 -108 0
106 107 108 0
-109 -110 0
-109 -111 0
-110 -111 0
109 110 111 0
-112 -113 0
-112 -114 0
-113 -114 0
112 113 114 0
-115 -116 0
-115 -117 0
-116 -117 0
115 116 117 0
-118 -119 0
-118 -120 0
-119 -120 0
118 119 120 0
-121 -122 0
-121 -123 0
-122 -123 0
121 122 123 0
-124 -125 0
-124 -126 0
-125 -126 0
124 125 126 0
-127 -128 0
-127 -129 0
-128 -129 0
127 128 129 0
-130 -131 0
-130 -132 0
-131 -132 0
130 131 132 0
-133 -134 0
-133 -135 0
-134 -135 0
133 134 135 0
-136 -137 0
-136 -138 0
-137 -138 0
136 137 138 0
-139 -140 0
-139 -141 0
-140 -141 0
139 140 141 0
-142 -143 0
-142 -144 0
-143 -144 0
142 143 144 0
-145 -146 0
-145 -147 0
-146 -147 0
145 146 147 0
-148 -149 0
-148 -150 0
-149 -150 0
148 149 150 0
-151 -152 0
-151 -153 0
-152 -153 0
151 152 153 0
-154 -155 0
-154 -156 0
-155 -156 0
154 155 156 0
-157 -158 0
-157 -159 0
-158 -159 0
157 158 159 0
-160 -161 0
-160 -162 0
-161 -162 0
160 161 162 0
-163 -164 0
-163 -165 0
-164 -165 0
163 164 165 0
-166 -167 0
-166 -168 0
-167 -168 0
166 167 168 0
-169 -170 0
-169 -171 0
-170 -171 0
169 170 171 0
-172 -173 0
-172 -174 0
-173 -174 0
172 173 174 0
-175 -176 0
-175 -177 0
-176 -177 0
175 176 177 0
-178 -179 0
-178 -180 0
-179 -180 0
178 179 180 0
-181 -182 0
-181 -183 0
-182 -183 0
181 182 183 0
-184 -185 0
-184 -186 0
-185 -186 0
184 185 186 0
-187 -188 0
-187 -189 0
-188 -189 0
187 188 189 0
-190 -191 0
-190 -192 0
-191 -192 0
190 191 192 0
-193 -194 0
-193 -195 0
-194 -195 0
193 194 195 0
-196 -197 0
-196 -198 0
-197 -198 0
196 197 198 0
-199 -200 0
-199 -201 0
-200 -201 0
199 200 201 0
-202 -203 0
-202 -204 0
-203 -204 0
202 203 204 0
-205 -206 0
-205 -207 0
-206 -207 0
205 206 207 0
-208 -209 0
-208 -210 0
-209 -210 0
208 209 210 0
-211 -212 0
-211 -213 0
-212 -213 0
211 212 213 0
-214 -215 0
-214 -216 0
-215 -216 0
214 215 216 0
-217 -218 0
-217 -219 0
-218 -219 0
217 218 219 0
-220 -221 0
-220 -222 0
-221 -222 0
220 221 222 0
-223 -224 0
-223 -225 0
-224 -225 0
223 224 225 0
-226 -227 0
-226 -228 0
-227 -228 0
226 227 228 0
-229 -230 0
-229 -231 0
-230 -231 0
229 230 231 0
-232 -233 0
-232 -234 0
-233 -234 0
232 233 234 0
-235 -236 0
-235 -237 0
-236 -237 0
235 236 237 0
-238 -239 0
-238 -240 0
-239 -240 0
238 239 240 0
-241 -242 0
-241 -243 0
-242 -243 0
241 242 243 0
-244 -245 0
-244 -246 0
-245 -246 0
244 245 246 0
-247 -248 0
-247 -249 0
-248 -249 0
247 248 249 0
-250 -251 0
-250 -252 0
-251 -252 0
250 251 252 0
-253 -254 0
-253 -255 0
-254 -255 0
253 254 255 0
-256 -257 0
-256 -258 0
-257 -258 0
256 257 258 0
-259 -260 0
-259 -261 0
-260 -261 0
259 260 261 0
-262 -263 0
-262 -264 0
-263 -264 0
262 263 264 0
-265 -266 0
-265 -267 0
-266 -267 0
265 266 267 0
-268 -269 0
-268 -270 0
-269 -270 0
268 269 270 0
-271 -272 0
-271 -273 0
-272 -273 0
271 272 273 0
-274 -275 0
-274 -276 0
-275 -276 0
274 275 276 0
-277 -278 0
-277 -279 0
-278 -279 0
277 278 279 0
-280 -281 0
-280 -282 0
-281 -282 0
280 281 282 0
-283 -284 0
-283 -285 0
-284 -285 0
283 284 285 0
-286 -287 0
-286 -288 0
-287 -288 0
286 287 288 0
-289 -290 0
-289 -291 0
-290 -291 0
289 290 291 0
-292 -293 0
-292 -294 0
-293 -294 0
292 293 294 0
-295 -296 0
-295 -297 0
-296 -297 0
295 296 297 0
-298 -299 0
-298 -300 0
-299 -300 0
298 299 300 0
-109 -1 0
-110 -2 0
-111 -3 0
-124 -1 0
-125 -2 0
-126 -3 0
-178 -1 0
-179 -2 0
-180 -3 0
-277 -1 0
-278 -2 0
-279 -3 0
-280 -1 0
-281 -2 0
-282 -3 0
-115 -4 0
-116 -5 0
-117 -6 0
-151 -4 0
-152 -5 0
-153 -6 0
-178 -4 0
-179 -5 0
-180 -6 0
-190 -4 0
-191 -5 0
-192 -6 0
-175 -7 0
-176 -8 0
-177 -9 0
-199 -7 0
-200 -8 0
-201 -9 0
-205 -7 0
-206 -8 0
-207 -9 0
-229 -7 0
-230 -8 0
-231 -9 0
-238 -7 0
-239 -8 0
-240 -9 0
-112 -10 0
-113 -11 0
-114 -12 0
-127 -10 0
-128 -11 0
-129 -12 0
-223 -10 0
-224 -11 0
-225 -12 0
-235 -10 0
-236 -11 0
-237 -12 0
-256 -10 0
-257 -11 0
-258 -12 0
-277 -10 0
-278 -11 0
-279 -12 0
-106 -13 0
-107 -14 0
-108 -15 0
-175 -13 0
-176 -14 0
-177 -15 0
-181 -13 0
-182 -14 0
-183 -15 0
-256 -13 0
-257 -14 0
-258 -15 0
-268 -13 0
-269 -14 0
-270 -15 0
-103 -16 0
-104 -17 0
-105 -18 0
-151 -16 0
-152 -17 0
-153 -18 0
-199 -16 0
-200 -17 0
-201 -18 0
-121 -19 0
-122 -20 0
-123 -21 0
-130 -19 0
-131 -20 0
-132 -21 0
-145 -19 0
-146 -20 0
-147 -21 0
-184 -19 0
-185 -20 0
-186 -21 0
-286 -19 0
-287 -20 0
-288 -21 0
-127 -22 0
-128 -23 0
-129 -24 0
-142 -22 0
-143 -23 0
-144 -24 0
-202 -22 0
-203 -23 0
-204 -24 0
-226 -22 0
-227 -23 0
-228 -24 0
-235 -22 0
-236 -23 0
-237 -24 0
-271 -22 0
-272 -23 0
-273 -24 0
-130 -25 0
-131 -26 0
-132 -27 0
-145 -25 0
-146 -26 0
-147 -27 0
-148 -25 0
-149 -26 0
-150 -27 0
-193 -25 0
-194 -26 0
-195 -27 0
-256 -25 0
-257 -26 0
-258 -27 0
-283 -25 0
-284 -26 0
-285 -27 0
-130 -28 0
-131 -29 0
-132 -30 0
-142 -28 0
-143 -29 0
-144 -30 0
-178 -28 0
-179 -29 0
-180 -30 0
-181 -28 0
-182 -29 0
-183 -30 0
-202 -28 0
-203 -29 0
-204 -30 0
-235 -28 0
-236 -29 0
-237 -30 0
-259 -28 0
-260 -29 0
-261 -30 0
-292 -28 0
-293 -29 0
-294 -30 0
-103 -31 0
-104 -32 0
-105 -33 0
-169 -31 0
-170 -32 0
-171 -33 0
-205 -31 0
-206 -32 0
-207 -33 0
-232 -31 0
-233 -32 0
-234 -33 0
-190 -34 0
-191 -35 0
-192 -36 0
-199 -34 0
-200 -35 0
-201 -36 0
-283 -34 0
-284 -35 0
-285 -36 0
-292 -34 0
-293 -35 0
-294 -36 0
-298 -34 0
-299 -35 0
-300 -36 0
-115 -37 0
-116 -38 0
-117 -39 0
-196 -37 0
-197 -38 0
-198 -39 0
-217 -37 0
-218 -38 0
-219 -39 0
-223 -37 0
-224 -38 0
-225 -39 0
-145 -40 0
-146 -41 0
-147 -42 0
-181 -40 0
-182 -41 0
-183 -42 0
-184 -40 0
-185 -41 0
-186 -42 0
-232 -40 0
-233 -41 0
-234 -42 0
-286 -40 0
-287 -41 0
-288 -42 0
-142 -43 0
-143 -44 0
-144 -45 0
-166 -43 0
-167 -44 0
-168 -45 0
-172 -43 0
-173 -44 0
-174 -45 0
-217 -43 0
-218 -44 0
-219 -45 0
-271 -43 0
-272 -44 0
-273 -45 0
-289 -43 0
-290 -44 0
-291 -45 0
-295 -43 0
-296 -44 0
-297 -45 0
-166 -46 0
-167 -47 0
-168 -48 0
-211 -46 0
-212 -47 0
-213 -48 0
-232 -46 0
-233 -47 0
-234 -48 0
-124 -49 0
-125 -50 0
-126 -51 0
-127 -49 0
-128 -50 0
-129 -51 0
-196 -49 0
-197 -50 0
-198 -51 0
-250 -49 0
-251 -50 0
-252 -51 0
-259 -49 0
-260 -50 0
-261 -51 0
-160 -52 0
-161 -53 0
-162 -54 0
-241 -52 0
-242 -53 0
-243 -54 0
-253 -52 0
-254 -53 0
-255 -54 0
-271 -52 0
-272 -53 0
-273 -54 0
-277 -52 0
-278 -53 0
-279 -54 0
-121 -55 0
-122 -56 0
-123 -57 0
-238 -55 0
-239 -56 0
-240 -57 0
-259 -58 0
-260 -59 0
-261 -60 0
-289 -58 0
-290 -59 0
-291 -60 0
-109 -61 0
-110 -62 0
-111 -63 0
-214 -61 0
-215 -62 0
-216 -63 0
-220 -61 0
-221 -62 0
-222 -63 0
-229 -61 0
-230 -62 0
-231 -63 0
-118 -64 0
-119 -65 0
-120 -66 0
-136 -64 0
-137 -65 0
-138 -66 0
-178 -64 0
-179 -65 0
-180 -66 0
-235 -64 0
-236 -65 0
-237 -66 0
-127 -67 0
-128 -68 0
-129 -69 0
-154 -67 0
-155 -68 0
-156 -69 0
-193 -67 0
-194 -68 0
-195 -69 0
-199 -67 0
-200 -68 0
-201 -69 0
-295 -67 0
-296 -68 0
-297 -69 0
-118 -70 0
-119 -71 0
-120 -72 0
-157 -70 0
-158 -71 0
-159 -72 0
-187 -70 0
-188 -71 0
-189 -72 0
-190 -70 0
-191 -71 0
-192 -72 0
-226 -70 0
-227 -71 0
-228 -72 0
-232 -70 0
-233 -71 0
-234 -72 0
-157 -73 0
-158 -74 0
-159 -75 0
-241 -73 0
-242 -74 0
-243 -75 0
-253 -73 0
-254 -74 0
-255 -75 0
-259 -73 0
-260 -74 0
-261 -75 0
-133 -76 0
-134 -77 0
-135 -78 0
-193 -76 0
-194 -77 0
-195 -78 0
-208 -76 0
-209 -77 0
-210 -78 0
-223 -76 0
-224 -77 0
-225 -78 0
-238 -76 0
-239 -77 0
-240 -78 0
-112 -79 0
-113 -80 0
-114 -81 0
-124 -79 0
-125 -80 0
-126 -81 0
-187 -79 0
-188 -80 0
-189 -81 0
-256 -79 0
-257 -80 0
-258 -81 0
-283 -79 0
-284 -80 0
-285 -81 0
-298 -79 0
-299 -80 0
-300 -81 0
-115 -82 0
-116 -83 0
-117 -84 0
-130 -82 0
-131 -83 0
-132 -84 0
-223 -82 0
-224 -83 0
-225 -84 0
-247 -82 0
-248 -83 0
-249 -84 0
-121 -85 0
-122 -86 0
-123 -87 0
-202 -85 0
-203 -86 0
-204 -87 0
-250 -85 0
-251 -86 0
-252 -87 0
-253 -85 0
-254 -86 0
-255 -87 0
-295 -85 0
-296 -86 0
-297 -87 0
-109 -88 0
-110 -89 0
-111 -90 0
-118 -88 0
-119 -89 0
-120 -90 0
-121 -88 0
-122 -89 0
-123 -90 0
-187 -88 0
-188 -89 0
-189 -90 0
-253 -88 0
-254 -89 0
-255 -90 0
-274 -88 0
-275 -89 0
-276 -90 0
-139 -91 0
-140 -92 0
-141 -93 0
-217 -91 0
-218 -92 0
-219 -93 0
-271 -91 0
-272 -92 0
-273 -93 0
-289 -91 0
-290 -92 0
-291 -93 0
-136 -94 0
-137 -95 0
-138 -96 0
-139 -94 0
-140 -95 0
-141 -96 0
-208 -94 0
-209 -95 0
-210 -96 0
-229 -94 0
-230 -95 0
-231 -96 0
-250 -94 0
-251 -95 0
-252 -96 0
-265 -94 0
-266 -95 0
-267 -96 0
-151 -97 0
-152 -98 0
-153 -99 0
-154 -97 0
-155 -98 0
-156 -99 0
-244 -97 0
-245 -98 0
-246 -99 0
-286 -97 0
-287 -98 0
-288 -99 0
-103 -100 0
-104 -101 0
-105 -102 0
-202 -100 0
-203 -101 0
-204 -102 0
-229 -100 0
-230 -101 0
-231 -102 0
-256 -103 0
-257 -104 0
-258 -105 0
-286 -103 0
-287 -104 0
-288 -105 0
-271 -106 0
-272 -107 0
-273 -108 0
-220 -109 0
-221 -110 0
-222 -111 0
-280 -109 0
-281 -110 0
-282 -111 0
-295 -112 0
-296 -113 0
-297 -114 0
-223 -115 0
-224 -116 0
-225 -117 0
-226 -115 0
-227 -116 0
-228 -117 0
-211 -118 0
-212 -119 0
-213 -120 0
-256 -121 0
-257 -122 0
-258 -123 0
-265 -121 0
-266 -122 0
-267 -123 0
-232 -124 0
-233 -125 0
-234 -126 0
-235 -124 0
-236 -125 0
-237 -126 0
-289 -124 0
-290 -125 0
-291 -126 0
-295 -124 0
-296 -125 0
-297 -126 0
-202 -127 0
-203 -128 0
-204 -129 0
-259 -127 0
-260 -128 0
-261 -129 0
-259 -130 0
-260 -131 0
-261 -132 0
-223 -133 0
-224 -134 0
-225 -135 0
-247 -133 0
-248 -134 0
-249 -135 0
-208 -136 0
-209 -137 0
-210 -138 0
-229 -136 0
-230 -137 0
-231 -138 0
-241 -136 0
-242 -137 0
-243 -138 0
-286 -136 0
-287 -137 0
-288 -138 0
-238 -139 0
-239 -140 0
-240 -141 0
-241 -142 0
-242 -143 0
-243 -144 0
-259 -142 0
-260 -143 0
-261 -144 0
-262 -142 0
-263 -143 0
-264 -144 0
-205 -145 0
-206 -146 0
-207 -147 0
-283 -145 0
-284 -146 0
-285 -147 0
-286 -145 0
-287 -146 0
-288 -147 0
-256 -148 0
-257 -149 0
-258 -150 0
-223 -151 0
-224 -152 0
-225 -153 0
-226 -151 0
-227 -152 0
-228 -153 0
-253 -151 0
-254 -152 0
-255 -153 0
-298 -151 0
-299 -152 0
-300 -153 0
-208 -154 0
-209 -155 0
-210 -156 0
-265 -154 0
-266 -155 0
-267 -156 0
-268 -154 0
-269 -155 0
-270 -156 0
-274 -154 0
-275 -155 0
-276 -156 0
-220 -157 0
-221 -158 0
-222 -159 0
-292 -157 0
-293 -158 0
-294 -159 0
-259 -163 0
-260 -164 0
-261 -165 0
-271 -163 0
-272 -164 0
-273 -165 0
-286 -163 0
-287 -164 0
-288 -165 0
-280 -169 0
-281 -170 0
-282 -171 0
-295 -169 0
-296 -170 0
-297 -171 0
-202 -172 0
-203 -173 0
-204 -174 0
-283 -172 0
-284 -173 0
-285 -174 0
-220 -175 0
-221 -176 0
-222 -177 0
-292 -175 0
-293 -176 0
-294 -177 0
-202 -178 0
-203 -179 0
-204 -180 0
-208 -178 0
-209 -179 0
-210 -180 0
-223 -178 0
-224 -179 0
-225 -180 0
-241 -178 0
-242 -179 0
-243 -180 0
-226 -181 0
-227 -182 0
-228 -183 0
-277 -181 0
-278 -182 0
-279 -183 0
-295 -181 0
-296 -182 0
-297 -183 0
-298 -181 0
-299 -182 0
-300 -183 0
-265 -184 0
-266 -185 0
-267 -186 0
-274 -184 0
-275 -185 0
-276 -186 0
-298 -184 0
-299 -185 0
-300 -186 0
-220 -187 0
-221 -188 0
-222 -189 0
-262 -187 0
-263 -188 0
-264 -189 0
-265 -187 0
-266 -188 0
-267 -189 0
-283 -187 0
-284 -188 0
-285 -189 0
-211 -190 0
-212 -191 0
-213 -192 0
-235 -190 0
-236 -191 0
-237 -192 0
-244 -193 0
-245 -194 0
-246 -195 0
-274 -193 0
-275 -194 0
-276 -195 0
-277 -193 0
-278 -194 0
-279 -195 0
-208 -196 0
-209 -197 0
-210 -198 0
-241 -196 0
-242 -197 0
-243 -198 0
-274 -196 0
-275 -197 0
-276 -198 0
-211 -199 0
-212 -200 0
-213 -201 0
-229 -199 0
-230 -200 0
-231 -201 0
-253 -199 0
-254 -200 0
-255 -201 0
-298 -199 0
-299 -200 0
-300 -201 0
